nbNodes = 12;
nbVehi = 3;
nbServi = 5;

e = 
 [|    0,  208,  113,   28,  298,  140,  301,   52,   50,  471,  110,    0,
 |    0,  302,  137,  308,  251,  252,  460,  389,    7,  399,  247,    0,
 |    0,  451,  371,  236,   86,  169,  377,  404,   44,  127,  254,    0,
 |    0,   87,  404,  340,  443,  235,  363,  291,  258,  209,  273,    0,
 |    0,   89,  384,  232,  259,  258,  288,  296,  356,  142,  444,    0,
 |];

l = 
 [| 480, 266, 157,  86, 330, 185, 352,  87, 102, 504, 167, 480,
 | 480, 360, 185, 364, 283, 310, 498, 422,  38, 457, 295, 480,
 | 480, 487, 422, 267, 126, 216, 428, 435,  86, 158, 284, 480,
 | 480, 118, 454, 396, 476, 289, 393, 346, 299, 241, 331, 480,
 | 480, 145, 414, 287, 308, 313, 339, 350, 413, 202, 484, 480,
 |];

a = 
 [|  1,  0,  0,  1,  0,
 |  0,  1,  0,  0,  1,
 |  0,  0,  1,  0,  0,
 |];

p = array3d(1..nbNodes,1..nbVehi,1..nbServi,
[  0,  0,  0,  0,  0,	  0,  0,  0,  0,  0,	  0,  0,  0,  0,  0,	
 26, 22, 17, 18, 10,	 23,  9, 11,  5, 17,	 18, 23, 16, 16,  8,	
 19, 17, 26, 29, 27,	 27,  5,  7,  5,  6,	 27, 20, 24, 15, 26,	
  9, 11, 20, 21, 24,	 25, 16,  5,  9, 18,	 17, 22, 11,  5, 10,	
 17, 22, 24, 13, 21,	 23, 12, 23, 28, 12,	 27, 25, 27, 21, 10,	
 25, 25, 18, 15, 18,	 14, 13,  7, 15, 17,	 20, 27, 11, 29, 28,	
 18, 16, 20, 12, 26,	 13,  6,  9,  6, 29,	 18, 28, 26, 16, 22,	
  9, 13, 19, 22, 26,	  8,  7,  9, 10, 19,	 23, 27, 16,  6, 26,	
 14, 19, 14,  6, 26,	 11, 14, 27, 17, 16,	 28,  5, 16, 25, 18,	
  8,  6, 27, 23, 25,	 23, 28, 27, 29, 10,	 18, 22,  7,  5, 23,	
 29, 16, 12, 13, 18,	 10, 21, 29, 10,  8,	 17,  8, 11, 29,  5,	
  0,  0,  0,  0,  0,	  0,  0,  0,  0,  0,	  0,  0,  0,  0,  0,	
]);

rs = 
[|true,true,true,true,true,
 |false,false,false,false,true,
 |false,false,false,true,false,
 |false,false,false,true,false,
 |false,false,false,false,true,
 |false,false,false,false,true,
 |false,false,false,true,false,
 |false,false,true,false,false,
 |false,false,false,true,false,
 |false,false,true,false,false,
 |false,false,true,false,false,
 |true,true,true,true,true,
 |];

d=[|0, 21, 28, 7, 29, 5, 18, 29, 27, 5, 6, 0, 
|21, 0, 49, 28, 48, 22, 11, 49, 45, 16, 25, 21, 
|28, 49, 0, 21, 23, 27, 45, 18, 27, 33, 24, 28, 
|7, 28, 21, 0, 25, 8, 25, 23, 24, 12, 5, 7, 
|29, 48, 23, 25, 0, 32, 39, 6, 5, 34, 30, 29, 
|5, 22, 27, 8, 32, 0, 22, 31, 31, 7, 3, 5, 
|18, 11, 45, 25, 39, 22, 0, 41, 35, 14, 24, 18, 
|29, 49, 18, 23, 6, 31, 41, 0, 10, 34, 28, 29, 
|27, 45, 27, 24, 5, 31, 35, 10, 0, 32, 29, 27, 
|5, 16, 33, 12, 34, 7, 14, 34, 32, 0, 10, 5, 
|6, 25, 24, 5, 30, 3, 24, 28, 29, 10, 0, 6, 
|0, 21, 28, 7, 29, 5, 18, 29, 27, 5, 6, 0, 
|];

%coord=[ (0,0), (19,10), (-23,-17), (-6,-4), (-29,6), (2,-5), (9,16), (-29,0), (-26,10), (5,2), (-1,-6), (0,0), ];

